NAME          DCAP_2_4_3_500_SS170
ROWS
 N  OBJ
 L  CON1
 L  CON2
 L  CON3
 L  CON4
 L  CON5
 L  CON6
 L  CON7
 L  CON8
 L  CON9
 L  CON10
 L  CON11
 L  CON12
 E  CON13
 E  CON14
 E  CON15
 E  CON16
 E  CON17
 E  CON18
 E  CON19
 E  CON20
 E  CON21
 E  CON22
 E  CON23
 E  CON24
COLUMNS
    x[1,1]    OBJ       6.180167      CON1      1.000000    
    x[1,1]    CON7      -1.000000     CON8      -1.000000   
    x[1,1]    CON9      -1.000000   
    x[1,2]    OBJ       6.563535      CON2      1.000000    
    x[1,2]    CON8      -1.000000     CON9      -1.000000   
    x[1,3]    OBJ       7.443064      CON3      1.000000    
    x[1,3]    CON9      -1.000000   
    x[2,1]    OBJ       6.732585      CON4      1.000000    
    x[2,1]    CON10     -1.000000     CON11     -1.000000   
    x[2,1]    CON12     -1.000000   
    x[2,2]    OBJ       5.039546      CON5      1.000000    
    x[2,2]    CON11     -1.000000     CON12     -1.000000   
    x[2,3]    OBJ       6.054841      CON6      1.000000    
    x[2,3]    CON12     -1.000000   
    MARKER    'MARKER'                'INTORG'
    u[1,1]    OBJ       48.076654     CON1      -1.000000   
    u[1,2]    OBJ       20.066487     CON2      -1.000000   
    u[1,3]    OBJ       32.230043     CON3      -1.000000   
    u[2,1]    OBJ       49.996186     CON4      -1.000000   
    u[2,2]    OBJ       49.466655     CON5      -1.000000   
    u[2,3]    OBJ       27.484319     CON6      -1.000000   
    y[1,1,1]  OBJ       8.544622      CON7      0.954315    
    y[1,1,1]  CON13     1.000000    
    y[1,1,2]  OBJ       7.373457      CON8      0.891377    
    y[1,1,2]  CON14     1.000000    
    y[1,1,3]  OBJ       6.125114      CON9      1.047885    
    y[1,1,3]  CON15     1.000000    
    y[1,2,1]  OBJ       8.163622      CON7      1.409848    
    y[1,2,1]  CON16     1.000000    
    y[1,2,2]  OBJ       9.583102      CON8      1.198581    
    y[1,2,2]  CON17     1.000000    
    y[1,2,3]  OBJ       8.931020      CON9      1.259387    
    y[1,2,3]  CON18     1.000000    
    y[1,3,1]  OBJ       6.578834      CON7      0.549326    
    y[1,3,1]  CON19     1.000000    
    y[1,3,2]  OBJ       8.859237      CON8      1.108927    
    y[1,3,2]  CON20     1.000000    
    y[1,3,3]  OBJ       6.555853      CON9      0.964927    
    y[1,3,3]  CON21     1.000000    
    y[1,4,1]  OBJ       8.222576      CON7      0.812428    
    y[1,4,1]  CON22     1.000000    
    y[1,4,2]  OBJ       5.556517      CON8      0.579144    
    y[1,4,2]  CON23     1.000000    
    y[1,4,3]  OBJ       6.824545      CON9      1.344601    
    y[1,4,3]  CON24     1.000000    
    y[2,1,1]  OBJ       7.230075      CON10     0.954315    
    y[2,1,1]  CON13     1.000000    
    y[2,1,2]  OBJ       9.350038      CON11     0.891377    
    y[2,1,2]  CON14     1.000000    
    y[2,1,3]  OBJ       5.311280      CON12     1.047885    
    y[2,1,3]  CON15     1.000000    
    y[2,2,1]  OBJ       6.616517      CON10     1.409848    
    y[2,2,1]  CON16     1.000000    
    y[2,2,2]  OBJ       8.041575      CON11     1.198581    
    y[2,2,2]  CON17     1.000000    
    y[2,2,3]  OBJ       5.613923      CON12     1.259387    
    y[2,2,3]  CON18     1.000000    
    y[2,3,1]  OBJ       7.128608      CON10     0.549326    
    y[2,3,1]  CON19     1.000000    
    y[2,3,2]  OBJ       8.329530      CON11     1.108927    
    y[2,3,2]  CON20     1.000000    
    y[2,3,3]  OBJ       9.153008      CON12     0.964927    
    y[2,3,3]  CON21     1.000000    
    y[2,4,1]  OBJ       7.456477      CON10     0.812428    
    y[2,4,1]  CON22     1.000000    
    y[2,4,2]  OBJ       6.954143      CON11     0.579144    
    y[2,4,2]  CON23     1.000000    
    y[2,4,3]  OBJ       5.520926      CON12     1.344601    
    y[2,4,3]  CON24     1.000000    
    z[1,1]    OBJ       507.523166    CON13     1.000000    
    z[1,2]    OBJ       727.549565    CON14     1.000000    
    z[1,3]    OBJ       592.286479    CON15     1.000000    
    z[2,1]    OBJ       853.378492    CON16     1.000000    
    z[2,2]    OBJ       978.573333    CON17     1.000000    
    z[2,3]    OBJ       927.907181    CON18     1.000000    
    z[3,1]    OBJ       611.922130    CON19     1.000000    
    z[3,2]    OBJ       956.461426    CON20     1.000000    
    z[3,3]    OBJ       778.028536    CON21     1.000000    
    z[4,1]    OBJ       836.041740    CON22     1.000000    
    z[4,2]    OBJ       750.108518    CON23     1.000000    
    z[4,3]    OBJ       567.415449    CON24     1.000000    
    MARKER    'MARKER'                 'INTEND'
RHS
    RHS       CON1      -0.000000     CON2      -0.000000   
    RHS       CON3      -0.000000     CON4      -0.000000   
    RHS       CON5      -0.000000     CON6      -0.000000   
    RHS       CON7      -0.000000     CON8      -0.000000   
    RHS       CON9      -0.000000     CON10     -0.000000   
    RHS       CON11     -0.000000     CON12     -0.000000   
    RHS       CON13     1.000000      CON14     1.000000    
    RHS       CON15     1.000000      CON16     1.000000    
    RHS       CON17     1.000000      CON18     1.000000    
    RHS       CON19     1.000000      CON20     1.000000    
    RHS       CON21     1.000000      CON22     1.000000    
    RHS       CON23     1.000000      CON24     1.000000    
BOUNDS
 BV BOUND     u[1,1]  
 BV BOUND     u[1,2]  
 BV BOUND     u[1,3]  
 BV BOUND     u[2,1]  
 BV BOUND     u[2,2]  
 BV BOUND     u[2,3]  
 BV BOUND     y[1,1,1]
 BV BOUND     y[1,1,2]
 BV BOUND     y[1,1,3]
 BV BOUND     y[1,2,1]
 BV BOUND     y[1,2,2]
 BV BOUND     y[1,2,3]
 BV BOUND     y[1,3,1]
 BV BOUND     y[1,3,2]
 BV BOUND     y[1,3,3]
 BV BOUND     y[1,4,1]
 BV BOUND     y[1,4,2]
 BV BOUND     y[1,4,3]
 BV BOUND     y[2,1,1]
 BV BOUND     y[2,1,2]
 BV BOUND     y[2,1,3]
 BV BOUND     y[2,2,1]
 BV BOUND     y[2,2,2]
 BV BOUND     y[2,2,3]
 BV BOUND     y[2,3,1]
 BV BOUND     y[2,3,2]
 BV BOUND     y[2,3,3]
 BV BOUND     y[2,4,1]
 BV BOUND     y[2,4,2]
 BV BOUND     y[2,4,3]
 BV BOUND     z[1,1]  
 BV BOUND     z[1,2]  
 BV BOUND     z[1,3]  
 BV BOUND     z[2,1]  
 BV BOUND     z[2,2]  
 BV BOUND     z[2,3]  
 BV BOUND     z[3,1]  
 BV BOUND     z[3,2]  
 BV BOUND     z[3,3]  
 BV BOUND     z[4,1]  
 BV BOUND     z[4,2]  
 BV BOUND     z[4,3]  
ENDATA
